ATOMIC_SPECIES
Ag  107.8682      ../../PP_ORB/Ag_ONCV_PBE-1.0.upf
Bi  208.9804      ../../PP_ORB/Bi_ONCV_PBE-1.0.upf
Te  127.6         ../../PP_ORB/Te_ONCV_PBE-1.0.upf

NUMERICAL_ORBITAL
../../PP_ORB/Ag_gga_9au_60Ry_4s2p2d1f.orb
../../PP_ORB/Bi_gga_9au_60Ry_2s2p2d.orb
../../PP_ORB/Te_gga_9au_60Ry_2s2p2d.orb

LATTICE_CONSTANT
1.8897261258369282 

LATTICE_VECTORS
11.813251000      0.0000000000      0.0000000000      
-5.906625000      9.7392690000      0.0000000000      
0.0000000000      0.0000000000      58.248389000      

ATOMIC_POSITIONS
Direct

Ag
0.0000000000
1
0.0000000000 0.0000000000 0.0000000000 1 1 1 mag 0.0 

Bi
0.0000000000
3
0.0000000000 0.0000000000 0.5000000000 1 1 1 mag 0.0 
0.5000000000 0.5000000000 0.0000000000 1 1 1 mag 0.0 
0.0000000000 0.5000000000 0.0000000000 1 1 1 mag 0.0 

Te
0.0000000000
6
0.0000000000 0.0000000000 0.7689960000 1 1 1 mag 0.0 
0.0000000000 0.0000000000 0.2310040000 1 1 1 mag 0.0 
0.7525440000 0.7523400000 0.0000000000 1 1 1 mag 0.0 
0.2474560000 0.2476600000 0.0000000000 1 1 1 mag 0.0 
0.0002040000 0.2476600000 0.0000000000 1 1 1 mag 0.0 
0.9997960000 0.7523400000 0.0000000000 1 1 1 mag 0.0 

